\ File written by HiGHS .lp file handler
min
 obj: 
st
 jun_bal_67_52_25_241: +1 wwy_flow_11_52_25_241 +1 wwy_flow_12_52_25_241 -1 wwy_flow_13_52_25_241 -1 wwy_flow_14_52_25_241 +1 wwy_flow_116_52_25_241 +1 wwy_flow_117_52_25_241 +1 flw_flow_67_52_25_241 +0.1 rsv_fext_67_52_25_241 >= +0
 jun_bal_67_52_25_242: +1 wwy_flow_11_52_25_242 +1 wwy_flow_12_52_25_242 -1 wwy_flow_13_52_25_242 -1 wwy_flow_14_52_25_242 +1 wwy_flow_116_52_25_242 +1 wwy_flow_117_52_25_242 +1 flw_flow_67_52_25_242 +0.1 rsv_fext_67_52_25_242 >= +0
 jun_bal_67_52_25_243: +1 wwy_flow_11_52_25_243 +1 wwy_flow_12_52_25_243 -1 wwy_flow_13_52_25_243 -1 wwy_flow_14_52_25_243 +1 wwy_flow_116_52_25_243 +1 wwy_flow_117_52_25_243 +1 flw_flow_67_52_25_243 +0.1 rsv_fext_67_52_25_243 >= +0
 jun_bal_67_52_25_244: +1 wwy_flow_11_52_25_244 +1 wwy_flow_12_52_25_244 -1 wwy_flow_13_52_25_244 -1 wwy_flow_14_52_25_244 +1 wwy_flow_116_52_25_244 +1 wwy_flow_117_52_25_244 +1 flw_flow_67_52_25_244 +0.1 rsv_fext_67_52_25_244 >= +0
 jun_bal_67_52_25_245: +1 wwy_flow_11_52_25_245 +1 wwy_flow_12_52_25_245 -1 wwy_flow_13_52_25_245 -1 wwy_flow_14_52_25_245 +1 wwy_flow_116_52_25_245 +1 wwy_flow_117_52_25_245 +1 flw_flow_67_52_25_245 +0.1 rsv_fext_67_52_25_245 >= +0
 jun_bal_67_52_25_246: +1 wwy_flow_11_52_25_246 +1 wwy_flow_12_52_25_246 -1 wwy_flow_13_52_25_246 -1 wwy_flow_14_52_25_246 +1 wwy_flow_116_52_25_246 +1 wwy_flow_117_52_25_246 +1 flw_flow_67_52_25_246 +0.1 rsv_fext_67_52_25_246 >= +0
 jun_bal_67_52_25_247: +1 wwy_flow_11_52_25_247 +1 wwy_flow_12_52_25_247 -1 wwy_flow_13_52_25_247 -1 wwy_flow_14_52_25_247 +1 wwy_flow_116_52_25_247 +1 wwy_flow_117_52_25_247 +1 flw_flow_67_52_25_247 +0.1 rsv_fext_67_52_25_247 >= +0
 jun_bal_67_52_25_248: +1 wwy_flow_11_52_25_248 +1 wwy_flow_12_52_25_248 -1 wwy_flow_13_52_25_248 -1 wwy_flow_14_52_25_248 +1 wwy_flow_116_52_25_248 +1 wwy_flow_117_52_25_248 +1 flw_flow_67_52_25_248 +0.1 rsv_fext_67_52_25_248 >= +0
 jun_bal_67_52_25_249: +1 wwy_flow_11_52_25_249 +1 wwy_flow_12_52_25_249 -1 wwy_flow_13_52_25_249 -1 wwy_flow_14_52_25_249 +1 wwy_flow_116_52_25_249 +1 wwy_flow_117_52_25_249 +1 flw_flow_67_52_25_249 +0.1 rsv_fext_67_52_25_249 >= +0
 jun_bal_67_52_25_250: +1 wwy_flow_11_52_25_250 +1 wwy_flow_12_52_25_250 -1 wwy_flow_13_52_25_250 -1 wwy_flow_14_52_25_250 +1 wwy_flow_116_52_25_250 +1 wwy_flow_117_52_25_250 +1 flw_flow_67_52_25_250 +0.1 rsv_fext_67_52_25_250 >= +0
 jun_bal_66_52_25_241: +1 wwy_flow_133_52_25_241 -1 wwy_flow_116_52_25_241 -1 wwy_flow_117_52_25_241 >= +0
 jun_bal_66_52_25_242: +1 wwy_flow_133_52_25_242 -1 wwy_flow_116_52_25_242 -1 wwy_flow_117_52_25_242 >= +0
 jun_bal_66_52_25_243: +1 wwy_flow_133_52_25_243 -1 wwy_flow_116_52_25_243 -1 wwy_flow_117_52_25_243 >= +0
 jun_bal_66_52_25_244: +1 wwy_flow_133_52_25_244 -1 wwy_flow_116_52_25_244 -1 wwy_flow_117_52_25_244 >= +0
 jun_bal_66_52_25_245: +1 wwy_flow_133_52_25_245 -1 wwy_flow_116_52_25_245 -1 wwy_flow_117_52_25_245 >= +0
 jun_bal_66_52_25_246: +1 wwy_flow_133_52_25_246 -1 wwy_flow_116_52_25_246 -1 wwy_flow_117_52_25_246 >= +0
 jun_bal_66_52_25_247: +1 wwy_flow_133_52_25_247 -1 wwy_flow_116_52_25_247 -1 wwy_flow_117_52_25_247 >= +0
 jun_bal_66_52_25_248: +1 wwy_flow_133_52_25_248 -1 wwy_flow_116_52_25_248 -1 wwy_flow_117_52_25_248 >= +0
 jun_bal_66_52_25_249: +1 wwy_flow_133_52_25_249 -1 wwy_flow_116_52_25_249 -1 wwy_flow_117_52_25_249 >= +0
 jun_bal_66_52_25_250: +1 wwy_flow_133_52_25_250 -1 wwy_flow_116_52_25_250 -1 wwy_flow_117_52_25_250 >= +0
 rsv_vol_67_52_25_241: +0.0001116 rsv_drain_67_52_25_241 +0.0001116 rsv_fext_67_52_25_241 -1 rsv_sini_67_52_25 +1 rsv_vol_67_52_25_241 <= +0
 rsv_vol_67_52_25_242: +0.0001116 rsv_drain_67_52_25_242 +0.0001116 rsv_fext_67_52_25_242 -1 rsv_vol_67_52_25_241 +1 rsv_vol_67_52_25_242 <= +0
 rsv_vol_67_52_25_243: +0.0006696 rsv_drain_67_52_25_243 +0.0006696 rsv_fext_67_52_25_243 -1 rsv_vol_67_52_25_242 +1 rsv_vol_67_52_25_243 <= +0
 rsv_vol_67_52_25_244: +0.0001116 rsv_drain_67_52_25_244 +0.0001116 rsv_fext_67_52_25_244 -1 rsv_vol_67_52_25_243 +1 rsv_vol_67_52_25_244 <= +0
 rsv_vol_67_52_25_245: +0.0001116 rsv_drain_67_52_25_245 +0.0001116 rsv_fext_67_52_25_245 -1 rsv_vol_67_52_25_244 +1 rsv_vol_67_52_25_245 <= +0
 rsv_vol_67_52_25_246: +0.0001116 rsv_drain_67_52_25_246 +0.0001116 rsv_fext_67_52_25_246 -1 rsv_vol_67_52_25_245 +1 rsv_vol_67_52_25_246 <= +0
 rsv_vol_67_52_25_247: +0.0002232 rsv_drain_67_52_25_247 +0.0002232 rsv_fext_67_52_25_247 -1 rsv_vol_67_52_25_246 +1 rsv_vol_67_52_25_247 <= +0
 rsv_vol_67_52_25_248: +0.000558 rsv_drain_67_52_25_248 +0.000558 rsv_fext_67_52_25_248 -1 rsv_vol_67_52_25_247 +1 rsv_vol_67_52_25_248 <= +0
 rsv_vol_67_52_25_249: +0.000558 rsv_drain_67_52_25_249 +0.000558 rsv_fext_67_52_25_249 -1 rsv_vol_67_52_25_248 +1 rsv_vol_67_52_25_249 <= +0
 rsv_vol_67_52_25_250: +0.0001116 rsv_drain_67_52_25_250 +0.0001116 rsv_fext_67_52_25_250 -1 rsv_vol_67_52_25_249 +1 rsv_vol_67_52_25_250 <= +0
 rdl_qavg_65_52_25: -0.0416666666666667 wwy_flow_11_52_25_241 -0.0416666666666667 wwy_flow_11_52_25_242 -0.25 wwy_flow_11_52_25_243 -0.0416666666666667 wwy_flow_11_52_25_244 -0.0416666666666667 wwy_flow_11_52_25_245 -0.0416666666666667 wwy_flow_11_52_25_246 -0.0833333333333333 wwy_flow_11_52_25_247 -0.208333333333333 wwy_flow_11_52_25_248 -0.208333333333333 wwy_flow_11_52_25_249 -0.0416666666666667 wwy_flow_11_52_25_250 +1 rdl_qeh_65_52_25 >= +0
 rdl_dvol_65_52_25: -0.034934 rsv_sini_65_52_25 -0.034934 rsv_vol_65_52_25_250 +1 rdl_qeh_65_52_25 <= +15.787
 tur_conv_67_52_25_241: +1 gen_gen_67_52_25_241 -0.8 wwy_flow_13_52_25_241 <= +0
 tur_conv_67_52_25_242: +1 gen_gen_67_52_25_242 -0.8 wwy_flow_13_52_25_242 <= +0
 tur_conv_67_52_25_243: +1 gen_gen_67_52_25_243 -0.8 wwy_flow_13_52_25_243 <= +0
 tur_conv_67_52_25_244: +1 gen_gen_67_52_25_244 -0.8 wwy_flow_13_52_25_244 <= +0
 tur_conv_67_52_25_245: +1 gen_gen_67_52_25_245 -0.8 wwy_flow_13_52_25_245 <= +0
 tur_conv_67_52_25_246: +1 gen_gen_67_52_25_246 -0.8 wwy_flow_13_52_25_246 <= +0
 tur_conv_67_52_25_247: +1 gen_gen_67_52_25_247 -0.8 wwy_flow_13_52_25_247 <= +0
 tur_conv_67_52_25_248: +1 gen_gen_67_52_25_248 -0.8 wwy_flow_13_52_25_248 <= +0
 tur_conv_67_52_25_249: +1 gen_gen_67_52_25_249 -0.8 wwy_flow_13_52_25_249 <= +0
 tur_conv_67_52_25_250: +1 gen_gen_67_52_25_250 -0.8 wwy_flow_13_52_25_250 <= +0
bounds
 rsv_drain_67_52_25_241 <= 60000
 rsv_drain_67_52_25_242 <= 60000
 rsv_drain_67_52_25_243 <= 60000
 rsv_drain_67_52_25_244 <= 60000
 rsv_drain_67_52_25_245 <= 60000
 rsv_drain_67_52_25_246 <= 60000
 rsv_drain_67_52_25_247 <= 60000
 rsv_drain_67_52_25_248 <= 60000
 rsv_drain_67_52_25_249 <= 60000
 rsv_drain_67_52_25_250 <= 60000
 50 <= gen_gen_67_52_25_241 <= 450
 50 <= gen_gen_67_52_25_242 <= 450
 50 <= gen_gen_67_52_25_243 <= 450
 50 <= gen_gen_67_52_25_244 <= 450
 50 <= gen_gen_67_52_25_245 <= 450
 50 <= gen_gen_67_52_25_246 <= 450
 50 <= gen_gen_67_52_25_247 <= 450
 50 <= gen_gen_67_52_25_248 <= 450
 50 <= gen_gen_67_52_25_249 <= 450
 50 <= gen_gen_67_52_25_250 <= 450
 wwy_flow_12_52_25_241 = 0
 wwy_flow_133_52_25_241 <= 27.1
 wwy_flow_12_52_25_242 = 0
 wwy_flow_133_52_25_242 <= 27.1
 wwy_flow_12_52_25_243 = 0
 wwy_flow_133_52_25_243 <= 27.1
 wwy_flow_12_52_25_244 = 0
 wwy_flow_133_52_25_244 <= 27.1
 wwy_flow_12_52_25_245 = 0
 wwy_flow_133_52_25_245 <= 27.1
 wwy_flow_12_52_25_246 = 0
 wwy_flow_133_52_25_246 <= 27.1
 wwy_flow_12_52_25_247 = 0
 wwy_flow_133_52_25_247 <= 27.1
 wwy_flow_12_52_25_248 = 0
 wwy_flow_133_52_25_248 <= 27.1
 wwy_flow_12_52_25_249 = 0
 wwy_flow_133_52_25_249 <= 27.1
 wwy_flow_12_52_25_250 = 0
 wwy_flow_133_52_25_250 <= 27.1
 wwy_flow_14_52_25_241 = 0
 wwy_flow_117_52_25_241 <= 9947
 flw_flow_67_52_25_241 = 13.15
 -100000 <= rsv_fext_67_52_25_241 <= 100000
 wwy_flow_14_52_25_242 = 0
 wwy_flow_117_52_25_242 <= 9947
 flw_flow_67_52_25_242 = 13.15
 -100000 <= rsv_fext_67_52_25_242 <= 100000
 wwy_flow_14_52_25_243 = 0
 wwy_flow_117_52_25_243 <= 9947
 flw_flow_67_52_25_243 = 13.15
 -100000 <= rsv_fext_67_52_25_243 <= 100000
 wwy_flow_14_52_25_244 = 0
 wwy_flow_117_52_25_244 <= 9947
 flw_flow_67_52_25_244 = 13.15
 -100000 <= rsv_fext_67_52_25_244 <= 100000
 wwy_flow_14_52_25_245 = 0
 wwy_flow_117_52_25_245 <= 9947
 flw_flow_67_52_25_245 = 13.15
 -100000 <= rsv_fext_67_52_25_245 <= 100000
 wwy_flow_14_52_25_246 = 0
 wwy_flow_117_52_25_246 <= 9947
 flw_flow_67_52_25_246 = 13.15
 -100000 <= rsv_fext_67_52_25_246 <= 100000
 wwy_flow_14_52_25_247 = 0
 wwy_flow_117_52_25_247 <= 9947
 flw_flow_67_52_25_247 = 13.15
 -100000 <= rsv_fext_67_52_25_247 <= 100000
 wwy_flow_14_52_25_248 = 0
 wwy_flow_117_52_25_248 <= 9947
 flw_flow_67_52_25_248 = 13.15
 -100000 <= rsv_fext_67_52_25_248 <= 100000
 wwy_flow_14_52_25_249 = 0
 wwy_flow_117_52_25_249 <= 9947
 flw_flow_67_52_25_249 = 13.15
 -100000 <= rsv_fext_67_52_25_249 <= 100000
 wwy_flow_14_52_25_250 = 0
 wwy_flow_117_52_25_250 <= 9947
 flw_flow_67_52_25_250 = 13.15
 -100000 <= rsv_fext_67_52_25_250 <= 100000
 rsv_sini_65_52_25 = 1.1732862
 0.4094096 <= rsv_vol_65_52_25_250 <= 1.1732862
 rsv_sini_67_52_25 = 0.575834
 0.575834 <= rsv_vol_67_52_25_241 <= 0.7196
 0.575834 <= rsv_vol_67_52_25_242 <= 0.7196
 0.575834 <= rsv_vol_67_52_25_243 <= 0.7196
 0.575834 <= rsv_vol_67_52_25_244 <= 0.7196
 0.575834 <= rsv_vol_67_52_25_245 <= 0.7196
 0.575834 <= rsv_vol_67_52_25_246 <= 0.7196
 0.575834 <= rsv_vol_67_52_25_247 <= 0.7196
 0.575834 <= rsv_vol_67_52_25_248 <= 0.7196
 0.575834 <= rsv_vol_67_52_25_249 <= 0.7196
 0.575834 <= rsv_vol_67_52_25_250 <= 0.7196
end
